Route #1: 0 43 26 42 1 5 0
Route #2: 0 16 30 25 13 29 22 0
Route #3: 0 4 27 28 19 37 23 32 12 8 39 0
Route #4: 0 35 33 21 3 15 18 34 7 0
Route #5: 0 6 9 31 38 40 20 0
Route #6: 0 44 41 11 10 36 2 17 14 24 0
Cost 761:
